
(set-logic ALL) 

(declare-datatype MyList ((Nil) (Cons (head Real) (tail MyList)) )) 
(declare-fun l0 () MyList) 
(declare-fun l1 () MyList) 
(declare-fun l2 () MyList) 
(declare-fun l3 () MyList) 
(declare-fun i0 () Real) 
(declare-fun i1 () Real) 
(assert (is-Cons l3) )
(assert (or (is-Cons l0) (= l3 l1) (is-Cons Nil) (= l1 Nil)) )
(assert (or (= l3 Nil) (= l1 Nil)) )
(assert (= l2 Nil) )
(assert (or (= l0 Nil) (= l0 Nil)) )
(assert (is-Nil l2) )
(assert (is-Nil l0) )
(assert (or (= l1 Nil) (= l0 Nil)) )
(check-sat)
